
Log started (V12.6.1.0) Tue Nov 28 18:49:55 2017

New value for time limit in seconds: 86400
New value for default parallel thread count: 1
Tried aggregator 2 times.
MIP Presolve eliminated 18124 rows and 1298 columns.
MIP Presolve modified 180 coefficients.
Aggregator did 44 substitutions.
Reduced MIP has 3679 rows, 17546 columns, and 105631 nonzeros.
Reduced MIP has 17348 binaries, 198 generals, 0 SOSs, and 0 indicators.
Presolve time = 0.09 sec. (96.85 ticks)
Probing time = 0.00 sec. (6.82 ticks)
Tried aggregator 1 time.
Reduced MIP has 3679 rows, 17546 columns, and 105631 nonzeros.
Reduced MIP has 17348 binaries, 198 generals, 0 SOSs, and 0 indicators.
Presolve time = 0.06 sec. (46.95 ticks)
Probing time = 0.02 sec. (5.90 ticks)
Clique table members: 46520.
MIP emphasis: balance optimality and feasibility.
MIP search method: dynamic search.
Parallel mode: none, using 1 thread.
Root relaxation solution time = 0.81 sec. (1155.51 ticks)

        Nodes                                         Cuts/
   Node  Left     Objective  IInf  Best Integer    Best Bound    ItCnt     Gap

      0     0       17.0000   748                     17.0000     4405         
      0     0       25.0000   481                    Cuts: 22     6235         
      0     0       31.6667   500                    Cuts: 67     8741         
      0     0       31.6667   432                    Cuts: 35    10585         
      0     0       31.6667   522                    Cuts: 28    13669         
*     0+    0                           53.0000       31.6667            40.25%
*     0+    0                           52.0000       31.6667            39.10%
*     0+    0                           51.0000       31.6667            37.91%
      0     2       31.6667   138       51.0000       31.6667    13669   37.91%
Elapsed time = 11.22 sec. (16344.31 ticks, tree = 0.00 MB, solutions = 3)
      1     3       31.6667   190       51.0000       31.6667    15861   37.91%
      2     4       31.6667   252       51.0000       31.6667    17050   37.91%
      3     5       31.6667   287       51.0000       31.6667    19520   37.91%
      4     6       31.6667   272       51.0000       31.6667    20110   37.91%
      5     7       31.6667   361       51.0000       31.6667    22502   37.91%
      7     9       31.6667   499       51.0000       31.6667    26803   37.91%
      9    11       31.6667   212       51.0000       31.6667    27390   37.91%
     11    13       31.6667   215       51.0000       31.6667    28899   37.91%
     14    16       31.6667   178       51.0000       31.6667    31327   37.91%
     17    17       31.6667   305       51.0000       31.6667    44413   37.91%
Elapsed time = 15.13 sec. (22682.54 ticks, tree = 0.23 MB, solutions = 3)
     19    19       31.6667   373       51.0000       31.6667    46938   37.91%
     20    20       31.6667   396       51.0000       31.6667    48314   37.91%
     23    23       31.6667   466       51.0000       31.6667    51297   37.91%
     24    24       31.6667   435       51.0000       31.6667    57979   37.91%
     26    26       31.6667   504       51.0000       31.6667    61535   37.91%
     29    29       31.9167   400       51.0000       31.6667    63781   37.91%
     32    32       31.6667   395       51.0000       31.6667    64961   37.91%
     34    34       31.6667   519       51.0000       31.6667    67593   37.91%
     36    36       31.6667   393       51.0000       31.6667    70073   37.91%
     40    38       31.6667   402       51.0000       31.6667    73310   37.91%
Elapsed time = 23.34 sec. (35394.18 ticks, tree = 1.03 MB, solutions = 3)
     42    40       31.6667   384       51.0000       31.6667    75990   37.91%
     44    42       31.6667   438       51.0000       31.6667    80736   37.91%
     53    51       31.7917   454       51.0000       31.6667    93535   37.91%
     66    64       32.0000   281       51.0000       31.6667   101948   37.91%
     80    78       34.1429   252       51.0000       31.6667   110848   37.91%
     92    90       41.1429   164       51.0000       31.6667   119400   37.91%
    105   103       45.1429   135       51.0000       31.6667   126992   37.91%
    123   121       46.0000    60       51.0000       31.6667   138533   37.91%
*   130+  126                           50.0000       31.6667            36.67%
    147   145       47.0000    15       50.0000       31.6667   147840   36.67%
    180   176       47.3333    51       50.0000       31.6667   154718   36.67%
Elapsed time = 30.47 sec. (45421.16 ticks, tree = 2.92 MB, solutions = 4)
    210   198       34.6667   240       50.0000       31.6667   167456   36.67%
    227   215       43.0000   149       50.0000       31.6667   184612   36.67%
    231   219       43.0000   129       50.0000       31.6667   190277   36.67%
    242   230       45.1667    48       50.0000       31.6667   196185   36.67%
    250   238       46.0000    51       50.0000       31.6667   206835   36.67%
*   260+  206                           48.0000       31.6667            34.03%
    268   216       46.0000    32       48.0000       31.6667   222459   34.03%
    286   228        cutoff             48.0000       31.6667   240199   34.03%
    302   236       31.6667   205       48.0000       31.6667   254587   34.03%
    312   246       45.0000   118       48.0000       31.6667   263195   34.03%
    328   260       46.3667   103       48.0000       31.6667   279103   34.03%
Elapsed time = 39.00 sec. (55705.29 ticks, tree = 3.81 MB, solutions = 5)
    342   266       37.0000   204       48.0000       31.6667   294496   34.03%
    362   286       45.0000   135       48.0000       31.6667   310178   34.03%
    379   301       47.0000    99       48.0000       31.6667   323304   34.03%
    394   312       47.0000    67       48.0000       31.6667   338336   34.03%
    401   313        cutoff             48.0000       31.6667   355863   34.03%
    411   319        cutoff             48.0000       31.6667   369665   34.03%
    428   328        cutoff             48.0000       31.6667   388442   34.03%
    441   331        cutoff             48.0000       31.6667   404354   34.03%
    458   346       45.0000   202       48.0000       31.6667   421280   34.03%
    480   366       45.0000   111       48.0000       31.6667   435553   34.03%
Elapsed time = 48.88 sec. (66302.32 ticks, tree = 4.98 MB, solutions = 5)
    494   376       34.6667   177       48.0000       31.6667   454013   34.03%
    500   382       45.0000   156       48.0000       31.6667   463493   34.03%
    513   391    infeasible             48.0000       31.6667   480401   34.03%
    533   411       46.2000    74       48.0000       31.6667   493962   34.03%
    540   416       46.2000    76       48.0000       31.6667   506540   34.03%
    571   441        cutoff             48.0000       31.6667   523113   34.03%
    590   454       34.6667   173       48.0000       31.6667   536791   34.03%
    602   466       45.0000   127       48.0000       31.6667   549932   34.03%
    616   480       45.3889   178       48.0000       31.6667   562836   34.03%
    630   490       45.0000   209       48.0000       31.6667   577140   34.03%
Elapsed time = 58.06 sec. (76299.32 ticks, tree = 6.32 MB, solutions = 5)
    639   499       45.0000   143       48.0000       31.6667   593354   34.03%
    640   500       45.0000   137       48.0000       31.6667   593673   34.03%
    657   515       45.3929   142       48.0000       31.6667   603773   34.03%
    662   520       45.5929   135       48.0000       31.6667   605646   34.03%
    675   527       34.6667   262       48.0000       31.6667   613952   34.03%
    687   539       35.6667   185       48.0000       31.6667   626453   34.03%
    700   552       40.6667   201       48.0000       31.6667   645608   34.03%
    714   566       45.0000    93       48.0000       31.6667   665104   34.03%
    726   578       45.0000   102       48.0000       31.6667   681011   34.03%
    735   587       45.2000    79       48.0000       31.6667   699315   34.03%
Elapsed time = 68.00 sec. (86860.25 ticks, tree = 7.91 MB, solutions = 5)
    740   592       45.2000   184       48.0000       31.6667   714707   34.03%
    748   600       45.2500    77       48.0000       31.6667   729710   34.03%
    758   610       46.0000    81       48.0000       31.6667   743358   34.03%
    767   619       46.0000    50       48.0000       31.6667   754287   34.03%
    777   629       47.0000    42       48.0000       31.6667   768601   34.03%
    804   648       35.6667   206       48.0000       31.6667   784931   34.03%
    829   673       46.0833   104       48.0000       31.6667   799171   34.03%
    848   688       47.0000    97       48.0000       31.6667   819725   34.03%
    860   694       47.0000    85       48.0000       31.6667   836466   34.03%
    865   691       31.6667   254       48.0000       31.6667   859351   34.03%
Elapsed time = 77.84 sec. (97485.38 ticks, tree = 9.21 MB, solutions = 5)
    881   707       45.0000   111       48.0000       31.6667   872546   34.03%
    888   714       45.0000   109       48.0000       31.6667   877338   34.03%
    913   735       47.0000    32       48.0000       31.6667   894838   34.03%
    925   743       47.0000    73       48.0000       31.6667   909980   34.03%
    936   750       47.0000    34       48.0000       31.6667   923330   34.03%
    952   760       47.0000    72       48.0000       31.6667   941606   34.03%
    975   779       43.6667   194       48.0000       31.6667   962628   34.03%
    980   782       46.0000    56       48.0000       46.0000   982808    4.17%
    985   786       46.0000   249       48.0000       46.0000   985219    4.17%
    986   787       46.0000   297       48.0000       46.0000   986778    4.17%
Elapsed time = 109.28 sec. (139444.99 ticks, tree = 10.45 MB, solutions = 5)
    988   788       46.0000    33       48.0000       46.0000   989023    4.17%
    990   789       46.0000   109       48.0000       46.0000   992012    4.17%
    992   791       46.0000   204       48.0000       46.0000   996275    4.17%
    996   791       46.0000    44       48.0000       46.0000  1002129    4.17%
   1001   794       46.0000    33       48.0000       46.0000  1004943    4.17%
   1005   796       47.0000    67       48.0000       46.0000  1010300    4.17%
   1017   689       47.0000    91       48.0000       46.0000  1012305    4.17%
   1026   652       47.0000    62       48.0000       46.0000  1014177    4.17%
   1034   640    infeasible             48.0000       46.0000  1015489    4.17%
   1077   586       47.0000    28       48.0000       46.0000  1023506    4.17%
Elapsed time = 118.20 sec. (154345.60 ticks, tree = 7.38 MB, solutions = 5)
   1126   570       46.0000    51       48.0000       46.0000  1035492    4.17%
   1161   594       46.3333    54       48.0000       46.0000  1043765    4.17%
   1202   605       47.0000    33       48.0000       46.0000  1062325    4.17%
   1266   587    infeasible             48.0000       46.0000  1075611    4.17%
   1305   594       47.0000    45       48.0000       46.0000  1089477    4.17%
   1383   570       46.0000    41       48.0000       46.0000  1096320    4.17%
   1419   590       47.0000   140       48.0000       46.0000  1110230    4.17%
   1461   602       46.0000   152       48.0000       46.0000  1130617    4.17%
   1496   608       47.0000    83       48.0000       46.0000  1139132    4.17%
   1569   625       47.0000    24       48.0000       46.0000  1149444    4.17%
Elapsed time = 142.30 sec. (192947.18 ticks, tree = 13.34 MB, solutions = 5)
*  1572   269      integral     0       47.0000       46.0000  1149871    2.13%
*  1618     2      integral     0       46.0000       46.0000  1156967    0.00%

Clique cuts applied:  85
Zero-half cuts applied:  17
Gomory fractional cuts applied:  50

Root node processing (before b&c):
  Real time             =   10.97 sec. (16091.46 ticks)
Sequential b&c:
  Real time             =  132.98 sec. (179716.98 ticks)
                          ------------
Total (root+branch&cut) =  143.95 sec. (195808.44 ticks)

Solution pool: 7 solutions saved.

MIP - Integer optimal solution:  Objective = 4.6000000000e+001
Solution time =  143.95 sec.  Iterations = 1156967  Nodes = 1619
Deterministic time = 195808.49 ticks  (1360.23 ticks/sec)


Incumbent solution written to file 'model_ore.sol'.
